NAME : X-n275-k28
COMMENT : "Generated by Uchoa, Pecin, Pessoa, Poggi, Subramanian, and Vidal (2013)"
TYPE : CVRP
DIMENSION : 275
EDGE_WEIGHT_TYPE : EUC_2D
CAPACITY : 10
NODE_COORD_SECTION
1 409 418
2 378 220
3 469 585
4 91 695
5 351 130
6 424 101
7 70 693
8 324 133
9 367 215
10 218 906
11 90 688
12 417 223
13 42 693
14 134 482
15 594 488
16 431 269
17 383 606
18 100 597
19 85 697
20 378 218
21 196 640
22 213 635
23 520 537
24 509 542
25 388 549
26 476 583
27 409 565
28 155 828
29 60 690
30 415 269
31 127 578
32 363 304
33 392 329
34 424 660
35 505 683
36 372 120
37 438 620
38 578 421
39 116 716
40 107 719
41 117 677
42 324 275
43 246 789
44 363 223
45 139 682
46 376 197
47 397 52
48 107 727
49 64 671
50 369 275
51 96 659
52 129 627
53 45 581
54 403 585
55 70 731
56 528 736
57 379 320
58 424 608
59 436 607
60 54 687
61 342 544
62 595 525
63 508 336
64 338 90
65 510 165
66 269 820
67 18 776
68 316 293
69 575 485
70 335 179
71 1 727
72 571 436
73 15 696
74 227 760
75 324 538
76 523 519
77 620 500
78 217 427
79 53 809
80 206 622
81 602 506
82 48 771
83 486 347
84 100 740
85 161 660
86 528 559
87 386 460
88 330 295
89 225 345
90 301 729
91 334 243
92 99 819
93 219 610
94 70 560
95 334 161
96 589 420
97 428 605
98 478 509
99 76 753
100 464 167
101 18 327
102 451 63
103 406 145
104 431 608
105 213 707
106 95 635
107 550 573
108 172 811
109 85 789
110 119 788
111 348 210
112 571 227
113 364 347
114 591 428
115 436 611
116 471 928
117 416 528
118 504 383
119 217 255
120 255 720
121 100 830
122 82 693
123 290 209
124 522 281
125 331 406
126 426 244
127 529 618
128 638 99
129 153 648
130 124 719
131 419 70
132 12 653
133 433 169
134 370 686
135 811 620
136 160 691
137 204 673
138 57 666
139 326 401
140 627 541
141 332 114
142 497 575
143 469 605
144 49 648
145 547 588
146 305 746
147 192 805
148 370 621
149 759 660
150 89 757
151 287 223
152 380 129
153 286 386
154 23 745
155 21 738
156 441 683
157 402 577
158 255 442
159 260 288
160 322 693
161 502 313
162 431 473
163 106 701
164 390 398
165 443 175
166 335 272
167 156 178
168 390 225
169 194 867
170 170 621
171 311 241
172 358 323
173 427 911
174 555 239
175 55 781
176 374 566
177 388 263
178 352 701
179 82 671
180 451 565
181 91 833
182 292 609
183 466 592
184 561 488
185 131 779
186 186 699
187 567 525
188 635 481
189 404 512
190 459 694
191 456 399
192 91 725
193 483 196
194 317 460
195 128 824
196 481 179
197 517 442
198 97 705
199 263 806
200 381 215
201 386 164
202 497 137
203 311 737
204 100 611
205 414 525
206 79 643
207 284 318
208 155 706
209 426 661
210 297 164
211 454 197
212 499 697
213 480 310
214 145 692
215 390 236
216 350 333
217 605 460
218 709 391
219 426 192
220 98 767
221 141 672
222 399 684
223 107 853
224 56 774
225 309 266
226 376 510
227 205 771
228 105 676
229 682 508
230 236 173
231 256 311
232 59 713
233 307 278
234 735 524
235 566 711
236 320 437
237 71 844
238 18 737
239 430 559
240 85 479
241 376 276
242 171 400
243 430 237
244 201 588
245 478 593
246 291 132
247 464 582
248 669 494
249 562 733
250 298 173
251 438 567
252 402 206
253 150 291
254 364 561
255 415 580
256 87 693
257 502 751
258 132 831
259 574 481
260 19 707
261 486 590
262 399 205
263 165 712
264 63 746
265 50 740
266 514 246
267 400 617
268 421 162
269 497 582
270 260 817
271 40 768
272 58 721
273 332 614
274 190 878
275 346 218
PICKUP_AND_DELIVERY_SECTION
1 0 0 1000000000 0 0 0
2 0 0 1000000000 0 0.418 0.582
3 0 0 1000000000 0 0.1983 0.8017
4 0 0 1000000000 0 0.8691 0.1309
5 0 0 1000000000 0 0.6296 0.3704
6 0 0 1000000000 0 0.7618 0.2382
7 0 0 1000000000 0 0.899 0.101
8 0 0 1000000000 0 0.5895 0.4105
9 0 0 1000000000 0 0.4142 0.5858
10 0 0 1000000000 0 0.7594 0.2406
11 0 0 1000000000 0 0.8692 0.1308
12 0 0 1000000000 0 0.4652 0.5348
13 0 0 1000000000 0 0.9394 0.06061
14 0 0 1000000000 0 0.722 0.278
15 0 0 1000000000 0 0.1785 0.8215
16 0 0 1000000000 0 0.3759 0.6241
17 0 0 1000000000 0 0.368 0.632
18 0 0 1000000000 0 0.8325 0.1675
19 0 0 1000000000 0 0.878 0.122
20 0 0 1000000000 0 0.4233 0.5767
21 0 0 1000000000 0 0.6937 0.3063
22 0 0 1000000000 0 0.6646 0.3354
23 0 0 1000000000 0 0.03166 0.9683
24 0 0 1000000000 0 0.06089 0.9391
25 0 0 1000000000 0 0.2933 0.7067
26 0 0 1000000000 0 0.1835 0.8165
27 0 0 1000000000 0 0.2761 0.7239
28 0 0 1000000000 0 0.8128 0.1872
29 0 0 1000000000 0 0.913 0.08696
30 0 0 1000000000 0 0.3518 0.6482
31 0 0 1000000000 0 0.7803 0.2197
32 0 0 1000000000 0 0.1625 0.8375
33 0 0 1000000000 0 0.1607 0.8393
34 0 0 1000000000 0 0.3576 0.6424
35 0 0 1000000000 0 0.2606 0.7394
36 0 0 1000000000 0 0.6774 0.3226
37 0 0 1000000000 0 0.2935 0.7065
38 0 0 1000000000 0 0.2716 0.7284
39 0 0 1000000000 0 0.838 0.162
40 0 0 1000000000 0 0.8512 0.1488
41 0 0 1000000000 0 0.8272 0.1728
42 0 0 1000000000 0 0.1512 0.8488
43 0 0 1000000000 0 0.6882 0.3118
44 0 0 1000000000 0 0.3857 0.6143
45 0 0 1000000000 0 0.7962 0.2038
46 0 0 1000000000 0 0.4761 0.5239
47 0 0 1000000000 0 0.869 0.131
48 0 0 1000000000 0 0.8528 0.1472
49 0 0 1000000000 0 0.9046 0.09538
50 0 0 1000000000 0 0.2547 0.7453
51 0 0 1000000000 0 0.8543 0.1457
52 0 0 1000000000 0 0.7943 0.2057
53 0 0 1000000000 0 0.9225 0.07745
54 0 0 1000000000 0 0.3111 0.6889
55 0 0 1000000000 0 0.9042 0.09576
56 0 0 1000000000 0 0.2826 0.7174
57 0 0 1000000000 0 0.1557 0.8443
58 0 0 1000000000 0 0.3026 0.6974
59 0 0 1000000000 0 0.2817 0.7183
60 0 0 1000000000 0 0.9214 0.0786
61 0 0 1000000000 0 0.3713 0.6287
62 0 0 1000000000 0 0.1176 0.8824
63 0 0 1000000000 0 0.3386 0.6614
64 0 0 1000000000 0 0.7337 0.2663
65 0 0 1000000000 0 0.6765 0.3235
66 0 0 1000000000 0 0.672 0.328
67 0 0 1000000000 0 0.9768 0.0232
68 0 0 1000000000 0 0.07278 0.9272
69 0 0 1000000000 0 0.1565 0.8435
70 0 0 1000000000 0 0.4657 0.5343
71 0 0 1000000000 0 0.9986 0.00138
72 0 0 1000000000 0 0.2364 0.7636
73 0 0 1000000000 0 0.9784 0.02155
74 0 0 1000000000 0 0.7013 0.2987
75 0 0 1000000000 0 0.3978 0.6022
76 0 0 1000000000 0 0.00765 0.9924
77 0 0 1000000000 0 0.1935 0.8065
78 0 0 1000000000 0 0.4918 0.5082
79 0 0 1000000000 0 0.9345 0.06551
80 0 0 1000000000 0 0.6688 0.3312
81 0 0 1000000000 0 0.1595 0.8405
82 0 0 1000000000 0 0.9377 0.06226
83 0 0 1000000000 0 0.286 0.714
84 0 0 1000000000 0 0.8649 0.1351
85 0 0 1000000000 0 0.7561 0.2439
86 0 0 1000000000 0 0.05546 0.9445
87 0 0 1000000000 0 0.1609 0.8391
88 0 0 1000000000 0 0.1061 0.8939
89 0 0 1000000000 0 0.3478 0.6522
90 0 0 1000000000 0 0.5871 0.4129
91 0 0 1000000000 0 0.2725 0.7275
92 0 0 1000000000 0 0.8791 0.1209
93 0 0 1000000000 0 0.641 0.359
94 0 0 1000000000 0 0.875 0.125
95 0 0 1000000000 0 0.518 0.482
96 0 0 1000000000 0 0.2869 0.7131
97 0 0 1000000000 0 0.2926 0.7074
98 0 0 1000000000 0 0.0609 0.9391
99 0 0 1000000000 0 0.8991 0.1009
100 0 0 1000000000 0 0.6401 0.3599
101 0 0 1000000000 0 0.945 0.05505
102 0 0 1000000000 0 0.8603 0.1397
103 0 0 1000000000 0 0.6429 0.3571
104 0 0 1000000000 0 0.2911 0.7089
105 0 0 1000000000 0 0.6987 0.3013
106 0 0 1000000000 0 0.8504 0.1496
107 0 0 1000000000 0 0.04014 0.9599
108 0 0 1000000000 0 0.7879 0.2121
109 0 0 1000000000 0 0.8923 0.1077
110 0 0 1000000000 0 0.849 0.151
111 0 0 1000000000 0 0.3966 0.6034
112 0 0 1000000000 0 0.6025 0.3975
113 0 0 1000000000 0 0.0467 0.9533
114 0 0 1000000000 0 0.2758 0.7242
115 0 0 1000000000 0 0.2864 0.7136
116 0 0 1000000000 0 0.4925 0.5075
117 0 0 1000000000 0 0.2121 0.7879
118 0 0 1000000000 0 0.2401 0.7599
119 0 0 1000000000 0 0.149 0.851
120 0 0 1000000000 0 0.6458 0.3542
121 0 0 1000000000 0 0.8795 0.1205
122 0 0 1000000000 0 0.8817 0.1183
123 0 0 1000000000 0 0.2793 0.7207
124 0 0 1000000000 0 0.4617 0.5383
125 0 0 1000000000 0 0.1847 0.8153
126 0 0 1000000000 0 0.4272 0.5728
127 0 0 1000000000 0 0.144 0.856
128 0 0 1000000000 0 0.8448 0.1552
129 0 0 1000000000 0 0.7639 0.2361
130 0 0 1000000000 0 0.8275 0.1725
131 0 0 1000000000 0 0.8329 0.1671
132 0 0 1000000000 0 0.9816 0.01838
133 0 0 1000000000 0 0.6097 0.3903
134 0 0 1000000000 0 0.4606 0.5394
135 0 0 1000000000 0 0.2355 0.7645
136 0 0 1000000000 0 0.7685 0.2315
137 0 0 1000000000 0 0.6969 0.3031
138 0 0 1000000000 0 0.9144 0.08559
139 0 0 1000000000 0 0.187 0.813
140 0 0 1000000000 0 0.1372 0.8628
141 0 0 1000000000 0 0.6566 0.3434
142 0 0 1000000000 0 0.1357 0.8643
143 0 0 1000000000 0 0.2248 0.7752
144 0 0 1000000000 0 0.9244 0.07562
145 0 0 1000000000 0 0.06973 0.9303
146 0 0 1000000000 0 0.5912 0.4088
147 0 0 1000000000 0 0.7615 0.2385
148 0 0 1000000000 0 0.4042 0.5958
149 0 0 1000000000 0 0.1304 0.8696
150 0 0 1000000000 0 0.8824 0.1176
151 0 0 1000000000 0 0.223 0.777
152 0 0 1000000000 0 0.6605 0.3395
153 0 0 1000000000 0 0.2591 0.7409
154 0 0 1000000000 0 0.9691 0.03087
155 0 0 1000000000 0 0.9715 0.02846
156 0 0 1000000000 0 0.3543 0.6457
157 0 0 1000000000 0 0.3033 0.6967
158 0 0 1000000000 0 0.4231 0.5769
159 0 0 1000000000 0 0.09722 0.9028
160 0 0 1000000000 0 0.5354 0.4646
161 0 0 1000000000 0 0.3765 0.6235
162 0 0 1000000000 0 0.08879 0.9112
163 0 0 1000000000 0 0.8488 0.1512
164 0 0 1000000000 0 0.0201 0.9799
165 0 0 1000000000 0 0.605 0.395
166 0 0 1000000000 0 0.1881 0.8119
167 0 0 1000000000 0 0.1236 0.8764
168 0 0 1000000000 0 0.4231 0.5769
169 0 0 1000000000 0 0.7762 0.2238
170 0 0 1000000000 0 0.7262 0.2738
171 0 0 1000000000 0 0.2251 0.7749
172 0 0 1000000000 0 0.09777 0.9022
173 0 0 1000000000 0 0.5313 0.4687
174 0 0 1000000000 0 0.5694 0.4306
175 0 0 1000000000 0 0.9296 0.07042
176 0 0 1000000000 0 0.3392 0.6608
177 0 0 1000000000 0 0.3222 0.6778
178 0 0 1000000000 0 0.4979 0.5021
179 0 0 1000000000 0 0.8778 0.1222
180 0 0 1000000000 0 0.2018 0.7982
181 0 0 1000000000 0 0.8908 0.1092
182 0 0 1000000000 0 0.5205 0.4795
183 0 0 1000000000 0 0.2128 0.7872
184 0 0 1000000000 0 0.1301 0.8699
185 0 0 1000000000 0 0.8318 0.1682
186 0 0 1000000000 0 0.7339 0.2661
187 0 0 1000000000 0 0.07407 0.9259
188 0 0 1000000000 0 0.2425 0.7575
189 0 0 1000000000 0 0.2109 0.7891
190 0 0 1000000000 0 0.3386 0.6614
191 0 0 1000000000 0 0.125 0.875
192 0 0 1000000000 0 0.8745 0.1255
193 0 0 1000000000 0 0.5942 0.4058
194 0 0 1000000000 0 0.3109 0.6891
195 0 0 1000000000 0 0.8447 0.1553
196 0 0 1000000000 0 0.6279 0.3721
197 0 0 1000000000 0 0.1451 0.8549
198 0 0 1000000000 0 0.8624 0.1376
199 0 0 1000000000 0 0.6737 0.3263
200 0 0 1000000000 0 0.4357 0.5643
201 0 0 1000000000 0 0.5751 0.4249
202 0 0 1000000000 0 0.7243 0.2757
203 0 0 1000000000 0 0.578 0.422
204 0 0 1000000000 0 0.8363 0.1637
205 0 0 1000000000 0 0.2114 0.7886
206 0 0 1000000000 0 0.8771 0.1229
207 0 0 1000000000 0 0.1069 0.8931
208 0 0 1000000000 0 0.7805 0.2195
209 0 0 1000000000 0 0.3555 0.6445
210 0 0 1000000000 0 0.4478 0.5522
211 0 0 1000000000 0 0.5661 0.4339
212 0 0 1000000000 0 0.2841 0.7159
213 0 0 1000000000 0 0.3542 0.6458
214 0 0 1000000000 0 0.7905 0.2095
215 0 0 1000000000 0 0.3949 0.6051
216 0 0 1000000000 0 0.04857 0.9514
217 0 0 1000000000 0 0.2397 0.7603
218 0 0 1000000000 0 0.4485 0.5515
219 0 0 1000000000 0 0.5493 0.4507
220 0 0 1000000000 0 0.8722 0.1278
221 0 0 1000000000 0 0.7902 0.2098
222 0 0 1000000000 0 0.4167 0.5833
223 0 0 1000000000 0 0.8746 0.1254
224 0 0 1000000000 0 0.9276 0.07235
225 0 0 1000000000 0 0.1392 0.8608
226 0 0 1000000000 0 0.2627 0.7373
227 0 0 1000000000 0 0.7341 0.2659
228 0 0 1000000000 0 0.8447 0.1553
229 0 0 1000000000 0 0.2551 0.7449
230 0 0 1000000000 0 0.2669 0.7331
231 0 0 1000000000 0 0.1768 0.8232
232 0 0 1000000000 0 0.9173 0.08275
233 0 0 1000000000 0 0.09446 0.9055
234 0 0 1000000000 0 0.2871 0.7129
235 0 0 1000000000 0 0.2039 0.7961
236 0 0 1000000000 0 0.2677 0.7323
237 0 0 1000000000 0 0.9159 0.08412
238 0 0 1000000000 0 0.9756 0.02442
239 0 0 1000000000 0 0.2308 0.7692
240 0 0 1000000000 0 0.8225 0.1775
241 0 0 1000000000 0 0.266 0.734
242 0 0 1000000000 0 0.5725 0.4275
243 0 0 1000000000 0 0.4488 0.5512
244 0 0 1000000000 0 0.6582 0.3418
245 0 0 1000000000 0 0.1939 0.8061
246 0 0 1000000000 0 0.5464 0.4536
247 0 0 1000000000 0 0.2027 0.7973
248 0 0 1000000000 0 0.2616 0.7384
249 0 0 1000000000 0 0.2333 0.7667
250 0 0 1000000000 0 0.4195 0.5805
251 0 0 1000000000 0 0.2275 0.7725
252 0 0 1000000000 0 0.4876 0.5124
253 0 0 1000000000 0 0.4845 0.5155
254 0 0 1000000000 0 0.3512 0.6488
255 0 0 1000000000 0 0.2845 0.7155
256 0 0 1000000000 0 0.8745 0.1255
257 0 0 1000000000 0 0.3316 0.6684
258 0 0 1000000000 0 0.8412 0.1588
259 0 0 1000000000 0 0.162 0.838
260 0 0 1000000000 0 0.9731 0.02687
261 0 0 1000000000 0 0.1763 0.8237
262 0 0 1000000000 0 0.4862 0.5138
263 0 0 1000000000 0 0.7683 0.2317
264 0 0 1000000000 0 0.9155 0.08445
265 0 0 1000000000 0 0.9324 0.06757
266 0 0 1000000000 0 0.5214 0.4786
267 0 0 1000000000 0 0.3517 0.6483
268 0 0 1000000000 0 0.6152 0.3848
269 0 0 1000000000 0 0.146 0.854
270 0 0 1000000000 0 0.6818 0.3182
271 0 0 1000000000 0 0.9479 0.05208
272 0 0 1000000000 0 0.9196 0.08044
273 0 0 1000000000 0 0.4593 0.5407
274 0 0 1000000000 0 0.7836 0.2164
275 0 0 1000000000 0 0.3699 0.6301
